<number of tasks>
1000

<cycle time>
1000

<order strength>
0,895


<task times>
1 132
2 134
3 153
4 52
5 292
6 22
7 92
8 202
9 148
10 120
11 118
12 78
13 139
14 142
15 329
16 198
17 83
18 64
19 228
20 104
21 188
22 141
23 122
24 278
25 233
26 27
27 80
28 266
29 188
30 59
31 82
32 36
33 110
34 55
35 308
36 211
37 64
38 80
39 36
40 62
41 103
42 141
43 203
44 40
45 221
46 204
47 22
48 61
49 276
50 168
51 120
52 49
53 150
54 22
55 177
56 162
57 142
58 82
59 32
60 129
61 131
62 127
63 182
64 128
65 241
66 104
67 25
68 181
69 226
70 223
71 179
72 202
73 260
74 82
75 71
76 72
77 23
78 90
79 136
80 87
81 68
82 143
83 55
84 80
85 78
86 185
87 132
88 56
89 76
90 157
91 63
92 176
93 92
94 48
95 44
96 142
97 141
98 111
99 113
100 83
101 379
102 31
103 160
104 97
105 70
106 96
107 31
108 184
109 125
110 30
111 54
112 165
113 60
114 184
115 77
116 250
117 180
118 166
119 147
120 105
121 133
122 203
123 38
124 255
125 103
126 144
127 192
128 139
129 71
130 246
131 147
132 135
133 146
134 77
135 37
136 22
137 55
138 102
139 102
140 176
141 112
142 228
143 60
144 32
145 116
146 173
147 84
148 155
149 40
150 48
151 108
152 58
153 56
154 25
155 228
156 200
157 24
158 117
159 24
160 259
161 119
162 181
163 76
164 165
165 27
166 109
167 81
168 234
169 284
170 270
171 112
172 100
173 200
174 24
175 227
176 156
177 287
178 68
179 150
180 31
181 245
182 98
183 85
184 151
185 268
186 47
187 91
188 89
189 99
190 74
191 83
192 135
193 124
194 107
195 140
196 179
197 154
198 209
199 247
200 116
201 78
202 91
203 91
204 190
205 208
206 151
207 256
208 168
209 150
210 140
211 154
212 122
213 92
214 124
215 56
216 263
217 277
218 39
219 262
220 138
221 101
222 178
223 163
224 236
225 160
226 115
227 115
228 47
229 37
230 118
231 115
232 204
233 74
234 97
235 73
236 176
237 93
238 462
239 124
240 110
241 309
242 283
243 94
244 26
245 180
246 136
247 34
248 90
249 67
250 174
251 182
252 198
253 122
254 107
255 52
256 336
257 152
258 86
259 127
260 21
261 338
262 96
263 83
264 173
265 241
266 157
267 137
268 107
269 67
270 189
271 91
272 231
273 45
274 164
275 167
276 39
277 44
278 53
279 214
280 100
281 250
282 151
283 58
284 101
285 259
286 182
287 70
288 37
289 26
290 30
291 182
292 159
293 173
294 25
295 129
296 74
297 185
298 37
299 101
300 119
301 127
302 26
303 31
304 37
305 75
306 32
307 58
308 166
309 167
310 115
311 251
312 228
313 64
314 173
315 50
316 238
317 142
318 131
319 174
320 131
321 168
322 27
323 184
324 29
325 21
326 103
327 53
328 222
329 203
330 242
331 90
332 201
333 186
334 90
335 120
336 31
337 122
338 167
339 36
340 80
341 114
342 439
343 135
344 176
345 137
346 80
347 209
348 226
349 48
350 282
351 216
352 207
353 61
354 81
355 121
356 126
357 38
358 81
359 190
360 188
361 102
362 52
363 295
364 141
365 45
366 165
367 70
368 118
369 24
370 229
371 156
372 38
373 213
374 149
375 60
376 110
377 233
378 190
379 121
380 74
381 181
382 46
383 40
384 88
385 114
386 90
387 198
388 77
389 140
390 214
391 113
392 53
393 26
394 196
395 94
396 75
397 31
398 41
399 461
400 48
401 76
402 37
403 216
404 48
405 133
406 59
407 36
408 125
409 53
410 122
411 179
412 237
413 197
414 247
415 28
416 134
417 169
418 152
419 273
420 155
421 215
422 175
423 235
424 285
425 124
426 75
427 197
428 94
429 78
430 88
431 201
432 25
433 82
434 148
435 73
436 41
437 172
438 78
439 175
440 135
441 148
442 162
443 120
444 140
445 56
446 60
447 56
448 48
449 68
450 160
451 79
452 183
453 128
454 105
455 98
456 168
457 134
458 184
459 51
460 151
461 171
462 83
463 165
464 110
465 26
466 141
467 48
468 255
469 256
470 230
471 199
472 164
473 166
474 162
475 228
476 136
477 106
478 147
479 204
480 88
481 119
482 65
483 206
484 226
485 188
486 156
487 225
488 201
489 110
490 172
491 153
492 189
493 67
494 93
495 93
496 36
497 170
498 75
499 150
500 195
501 187
502 239
503 20
504 142
505 100
506 210
507 78
508 148
509 107
510 72
511 82
512 132
513 89
514 109
515 230
516 59
517 313
518 110
519 149
520 193
521 154
522 185
523 192
524 89
525 265
526 113
527 63
528 141
529 201
530 281
531 261
532 119
533 120
534 139
535 116
536 152
537 139
538 123
539 39
540 79
541 64
542 86
543 125
544 118
545 201
546 28
547 28
548 74
549 213
550 94
551 246
552 166
553 171
554 273
555 308
556 139
557 196
558 68
559 215
560 145
561 111
562 189
563 56
564 177
565 73
566 236
567 86
568 273
569 87
570 150
571 175
572 88
573 205
574 272
575 131
576 24
577 74
578 135
579 42
580 255
581 176
582 158
583 214
584 114
585 113
586 112
587 204
588 241
589 48
590 34
591 133
592 132
593 197
594 216
595 91
596 22
597 250
598 129
599 233
600 89
601 106
602 78
603 30
604 69
605 126
606 114
607 24
608 127
609 145
610 35
611 183
612 81
613 180
614 162
615 400
616 133
617 218
618 186
619 118
620 36
621 332
622 212
623 226
624 34
625 109
626 186
627 318
628 204
629 184
630 142
631 46
632 143
633 108
634 95
635 164
636 37
637 162
638 186
639 162
640 106
641 48
642 229
643 138
644 173
645 160
646 64
647 280
648 229
649 130
650 223
651 104
652 28
653 61
654 131
655 104
656 183
657 73
658 61
659 101
660 147
661 48
662 252
663 116
664 57
665 98
666 288
667 115
668 266
669 266
670 72
671 21
672 38
673 242
674 125
675 209
676 113
677 69
678 188
679 150
680 112
681 130
682 26
683 210
684 159
685 90
686 107
687 34
688 108
689 358
690 144
691 426
692 122
693 197
694 31
695 224
696 106
697 169
698 127
699 47
700 131
701 91
702 85
703 97
704 135
705 28
706 160
707 248
708 33
709 89
710 178
711 97
712 65
713 22
714 113
715 53
716 24
717 105
718 203
719 171
720 239
721 49
722 40
723 200
724 81
725 233
726 44
727 153
728 204
729 33
730 120
731 98
732 260
733 106
734 84
735 76
736 135
737 321
738 124
739 67
740 196
741 169
742 31
743 127
744 51
745 94
746 104
747 110
748 83
749 64
750 103
751 153
752 74
753 103
754 100
755 74
756 31
757 146
758 130
759 163
760 59
761 88
762 434
763 292
764 33
765 173
766 66
767 187
768 130
769 119
770 96
771 156
772 48
773 137
774 136
775 224
776 250
777 131
778 248
779 214
780 185
781 168
782 85
783 178
784 177
785 156
786 100
787 90
788 68
789 303
790 98
791 133
792 133
793 193
794 107
795 280
796 180
797 178
798 73
799 106
800 215
801 63
802 81
803 43
804 80
805 106
806 126
807 65
808 85
809 32
810 221
811 57
812 66
813 163
814 214
815 189
816 37
817 110
818 264
819 26
820 54
821 200
822 39
823 107
824 131
825 212
826 100
827 48
828 127
829 237
830 53
831 53
832 218
833 96
834 106
835 197
836 138
837 186
838 39
839 124
840 76
841 35
842 112
843 104
844 45
845 50
846 55
847 134
848 150
849 152
850 209
851 166
852 250
853 193
854 100
855 211
856 238
857 99
858 72
859 159
860 189
861 191
862 217
863 73
864 193
865 77
866 193
867 275
868 113
869 171
870 21
871 133
872 122
873 194
874 132
875 263
876 39
877 72
878 141
879 128
880 126
881 162
882 185
883 73
884 73
885 71
886 95
887 72
888 110
889 248
890 81
891 154
892 38
893 139
894 143
895 67
896 163
897 93
898 125
899 29
900 288
901 213
902 91
903 261
904 35
905 116
906 119
907 184
908 77
909 37
910 60
911 36
912 56
913 36
914 71
915 191
916 110
917 252
918 241
919 135
920 35
921 105
922 116
923 137
924 66
925 98
926 130
927 50
928 23
929 96
930 102
931 75
932 147
933 171
934 70
935 86
936 116
937 99
938 189
939 144
940 227
941 67
942 132
943 65
944 187
945 245
946 87
947 120
948 241
949 43
950 121
951 99
952 76
953 270
954 162
955 96
956 158
957 86
958 87
959 177
960 269
961 75
962 80
963 224
964 145
965 52
966 254
967 57
968 324
969 86
970 32
971 62
972 30
973 171
974 229
975 70
976 42
977 53
978 52
979 130
980 45
981 87
982 49
983 33
984 143
985 170
986 206
987 142
988 89
989 131
990 122
991 64
992 115
993 258
994 152
995 237
996 225
997 331
998 98
999 275
1000 104

<precedence relations>
1,100
2,10
2,15
2,19
3,10
3,12
3,18
4,10
5,10
5,11
5,12
5,13
6,10
6,11
6,12
6,13
6,14
7,10
7,11
7,12
8,10
8,11
8,14
8,16
8,17
9,10
9,13
10,20
10,21
10,31
11,20
11,31
11,32
12,20
12,21
12,22
12,23
12,24
12,25
12,26
13,20
13,21
13,22
13,23
13,25
14,20
14,21
14,22
15,619
15,670
16,163
17,20
18,20
18,21
19,20
19,21
19,22
19,23
19,24
19,26
20,27
20,28
20,29
21,27
21,28
21,29
21,32
22,128
23,27
23,28
23,29
23,31
23,32
24,27
24,28
24,29
24,30
24,32
25,27
25,28
25,29
25,30
25,31
25,32
26,27
26,28
26,29
26,30
26,31
26,32
27,33
27,34
27,35
28,33
28,34
28,35
29,33
29,34
29,35
30,33
30,34
30,35
31,33
31,34
31,35
32,33
32,34
32,35
33,36
33,37
33,38
33,39
33,41
33,44
33,50
34,36
34,37
34,38
34,40
34,42
34,43
34,44
35,36
35,37
35,38
35,39
36,54
37,45
38,45
38,46
38,47
38,48
38,52
39,47
39,49
39,51
40,45
40,46
40,47
40,48
40,49
40,50
40,51
40,52
41,45
41,46
42,45
42,46
42,47
42,48
43,45
43,46
43,47
43,48
43,49
43,50
43,52
44,45
44,46
44,47
45,53
45,67
46,184
47,53
47,54
47,55
47,56
47,57
47,58
48,53
48,54
48,55
49,54
49,65
49,67
49,68
50,53
50,54
50,55
50,56
50,57
50,58
51,53
51,54
52,53
52,54
52,57
52,67
53,59
53,60
53,61
53,62
53,63
53,64
53,68
54,62
54,63
54,66
55,59
55,60
55,61
55,68
56,59
56,60
56,63
56,64
56,68
57,59
57,60
57,61
57,68
58,59
58,60
58,61
58,62
58,65
58,67
58,68
59,69
59,70
59,71
59,73
59,74
60,69
60,70
60,71
60,72
60,73
60,74
61,69
61,70
61,71
61,74
62,69
62,95
62,97
63,69
63,70
63,71
63,72
63,73
63,74
64,69
64,70
64,71
64,72
64,73
64,74
65,69
65,70
66,69
66,70
66,71
66,73
66,74
67,69
68,69
68,70
68,71
68,74
69,80
70,75
70,76
70,77
70,78
70,79
70,81
71,75
71,78
71,88
71,89
72,75
72,79
73,75
73,76
74,75
74,76
75,82
75,83
75,84
75,85
75,86
76,82
76,87
76,88
76,98
77,139
78,82
78,83
78,84
78,97
79,82
79,83
79,84
79,85
79,86
79,87
79,88
79,89
80,82
80,83
81,82
81,83
81,85
82,144
83,90
83,94
83,96
83,98
84,90
84,91
84,92
84,93
85,90
85,95
85,97
85,98
86,90
86,91
87,90
87,91
87,93
88,90
88,91
89,90
89,91
89,92
89,93
89,94
89,95
89,96
89,97
89,98
90,99
90,100
90,101
90,102
90,103
90,104
91,99
91,100
91,101
91,104
92,99
92,100
92,101
92,102
92,103
92,104
93,99
93,100
93,101
93,102
93,103
93,104
94,99
94,100
94,101
95,101
95,103
96,117
97,99
97,100
97,101
97,103
97,104
98,99
99,105
99,106
99,107
99,108
99,109
99,110
100,108
100,131
101,105
101,106
101,107
101,108
102,107
102,114
103,105
103,106
103,110
103,124
104,109
104,119
105,111
105,112
105,113
105,114
106,111
106,132
107,111
107,116
107,117
107,130
108,111
108,113
108,119
109,111
109,112
109,113
109,114
109,115
109,116
109,117
109,118
110,111
110,112
110,113
110,114
110,115
110,118
111,120
111,121
112,121
113,126
113,132
113,133
114,120
114,121
114,122
114,123
115,120
115,122
116,120
117,120
117,123
117,124
118,120
118,121
118,122
118,123
118,125
118,126
119,120
119,121
119,132
120,127
120,128
120,133
121,127
121,133
122,128
122,130
122,131
123,127
123,129
123,131
123,132
123,133
124,127
124,128
124,129
125,127
125,128
125,129
126,127
126,128
126,129
126,130
127,134
127,138
128,134
128,135
128,136
128,137
128,138
129,134
129,135
129,136
129,137
129,138
130,134
131,134
131,135
131,136
131,137
132,134
132,135
132,136
132,137
132,138
133,134
133,135
133,136
133,137
133,138
134,289
135,139
135,142
136,140
137,139
137,140
137,141
137,142
137,143
137,144
138,139
138,140
138,141
138,142
138,143
138,144
139,145
139,146
140,145
140,146
140,147
140,148
140,149
140,150
141,145
141,149
142,145
142,146
142,147
142,148
142,149
142,150
143,145
143,146
144,145
144,146
144,147
144,148
144,150
145,151
145,157
145,158
146,151
146,152
146,153
146,154
146,155
146,156
146,157
146,158
147,151
147,156
148,151
148,152
148,153
148,154
148,155
148,156
148,157
148,158
149,151
149,152
149,153
149,157
149,158
150,151
150,152
150,153
150,154
150,155
150,156
150,157
150,158
151,159
151,160
151,161
151,162
151,163
151,164
152,159
152,160
152,162
153,159
153,160
153,161
153,162
153,163
153,164
154,159
154,160
154,161
154,162
154,163
155,190
156,159
157,159
157,160
158,159
158,162
158,163
158,164
158,170
158,172
159,165
159,166
159,167
159,168
159,169
159,171
160,165
160,166
160,167
160,168
160,169
160,170
160,171
160,172
161,165
161,172
162,462
163,165
163,166
164,165
164,169
165,173
165,174
165,175
166,175
166,178
166,179
166,180
167,173
167,174
167,175
167,176
167,177
167,178
167,186
168,173
168,174
168,175
168,176
168,179
169,173
169,174
169,206
170,173
170,174
170,175
170,176
170,177
171,174
172,173
172,376
173,582
174,287
175,184
176,181
176,182
176,183
176,184
177,345
178,183
179,181
179,182
179,183
179,184
179,185
179,186
180,181
180,182
180,183
180,184
180,185
180,186
181,187
181,188
181,189
181,190
182,187
182,188
182,190
183,187
184,187
184,188
184,189
184,190
184,191
185,187
185,188
185,189
185,190
185,191
186,187
186,188
186,189
186,190
186,191
187,197
188,192
188,193
188,194
188,195
188,196
188,197
188,198
189,192
189,193
189,194
189,195
189,196
189,197
189,198
190,192
190,193
190,194
190,195
190,196
190,197
190,198
191,192
191,206
192,199
192,200
193,203
193,204
194,202
195,199
195,200
195,201
195,202
195,215
195,216
196,199
196,200
196,201
196,206
197,199
197,200
198,199
198,205
198,207
199,208
199,209
199,210
199,211
200,208
200,228
201,278
202,208
202,212
203,208
203,209
203,210
203,211
203,214
204,208
204,209
204,210
204,211
204,215
204,216
205,208
205,209
205,213
206,208
206,209
206,210
206,219
207,208
207,209
207,210
207,211
207,212
207,213
207,216
208,217
208,218
208,233
208,234
209,217
209,220
210,217
210,218
210,220
210,221
211,217
211,245
212,217
213,217
213,218
213,219
213,220
213,221
214,217
214,218
214,219
214,221
215,217
215,218
215,219
215,220
215,221
216,448
217,222
217,223
217,226
217,227
218,415
219,222
219,223
219,224
219,225
219,228
220,222
220,223
220,224
220,225
220,227
220,228
221,222
221,223
221,224
221,225
221,226
221,228
222,229
222,230
222,231
222,252
223,307
223,320
223,323
224,229
224,230
224,231
224,232
224,233
224,234
225,229
225,230
225,231
225,232
225,234
226,229
226,230
226,252
227,229
227,230
227,231
228,232
228,264
229,235
229,236
229,239
230,235
230,265
231,235
231,236
231,237
232,513
232,548
233,235
233,265
234,235
234,236
234,237
234,238
234,239
235,240
235,241
235,242
235,266
235,267
236,240
236,241
236,242
236,243
236,244
236,246
237,240
237,243
238,240
238,242
238,245
239,240
239,241
239,242
239,243
240,247
240,248
240,249
240,251
241,308
242,247
242,248
242,249
243,247
243,248
243,249
243,250
243,253
244,667
244,686
244,739
245,252
246,247
246,248
247,254
247,256
248,527
248,764
248,774
248,829
249,254
250,254
250,255
251,254
252,255
253,254
253,255
253,256
254,257
254,258
254,274
255,257
255,261
255,262
256,257
256,258
256,259
256,260
257,375
258,263
259,263
259,264
260,263
260,268
261,266
261,267
262,263
262,264
262,265
262,266
263,271
263,273
263,275
263,282
264,269
264,270
264,271
264,272
265,269
265,274
266,269
266,270
266,282
267,269
267,270
267,282
268,269
268,270
268,271
268,272
268,273
268,274
269,283
270,276
270,277
270,278
270,279
270,280
270,281
271,281
271,298
272,276
272,277
272,282
272,300
273,276
273,277
273,278
274,276
274,277
274,278
274,279
275,283
275,308
276,289
276,292
276,301
276,308
277,284
277,285
277,308
278,284
278,285
278,286
278,287
278,288
278,289
278,290
278,291
278,292
279,284
279,287
279,290
280,285
281,284
281,285
281,286
281,287
281,288
282,284
282,285
282,286
282,302
282,308
283,284
284,293
284,294
284,295
284,296
284,297
284,299
285,294
286,293
286,294
286,297
287,293
287,295
287,300
287,302
287,309
288,301
288,325
288,333
289,293
289,294
289,296
289,298
289,302
290,293
290,294
290,295
290,308
290,309
291,293
291,294
291,309
292,293
292,294
292,295
292,309
293,307
294,303
294,304
294,305
294,333
295,303
295,304
295,305
295,306
295,307
296,375
296,396
296,400
297,303
297,304
297,306
297,309
298,304
298,305
299,330
299,404
299,407
299,413
300,303
300,304
300,308
300,319
300,325
301,303
301,304
301,305
302,303
302,304
302,333
303,310
304,310
304,313
304,315
305,310
306,310
307,310
307,311
307,312
307,314
308,401
308,407
309,310
309,311
309,333
310,316
310,317
310,318
310,336
311,316
311,317
311,322
311,325
311,336
312,316
312,317
312,318
312,319
312,324
313,316
313,318
313,323
314,316
314,317
314,318
314,321
314,336
315,316
315,317
315,320
315,336
316,326
316,327
316,328
316,329
316,330
316,331
317,332
317,358
318,326
318,327
319,326
319,327
319,333
319,348
320,326
321,326
321,327
321,328
321,329
322,748
322,765
322,782
323,360
324,326
325,408
326,334
326,335
327,334
328,334
328,339
328,341
329,334
329,335
329,337
329,338
329,339
329,353
331,413
332,340
333,336
333,672
334,342
334,343
334,344
335,342
335,343
335,345
335,346
335,347
336,825
336,960
337,392
337,402
338,442
339,342
340,342
340,344
340,348
341,342
341,343
341,344
342,349
342,366
343,584
343,598
343,654
344,349
344,352
344,360
344,364
344,366
345,349
345,350
345,351
345,354
346,349
346,350
346,351
346,360
347,349
347,350
347,351
347,352
348,353
349,355
349,356
349,357
350,355
350,356
350,357
350,358
350,359
351,355
351,356
351,358
352,479
352,484
353,355
353,359
354,360
355,368
356,361
356,362
356,363
356,371
357,361
357,362
357,365
357,367
357,368
358,361
358,362
358,364
358,366
359,368
360,361
360,362
361,369
362,369
362,372
363,438
363,471
364,369
364,381
365,369
365,370
365,371
365,372
366,369
366,371
367,465
367,508
368,372
368,374
369,373
369,374
369,375
369,376
369,377
370,380
370,401
371,373
371,374
371,378
371,379
372,375
372,376
372,377
372,378
372,379
372,380
372,381
373,382
373,383
374,382
374,383
374,384
374,385
374,386
375,383
375,401
375,402
376,382
376,383
376,384
376,385
376,386
377,382
377,383
377,384
377,385
377,386
378,382
378,385
378,386
379,384
380,382
380,383
381,670
382,387
382,388
382,395
382,402
383,387
383,388
383,394
384,387
384,388
384,389
384,390
384,391
384,392
385,389
385,390
385,392
385,393
385,396
386,387
386,388
387,397
387,398
388,397
388,462
389,397
389,398
389,401
390,398
391,397
391,398
391,402
392,397
392,398
392,399
392,400
392,401
393,397
393,398
394,397
394,398
395,397
395,398
395,399
396,397
396,398
396,399
396,402
397,406
397,469
397,477
398,403
398,404
398,405
398,406
398,407
398,408
398,409
399,403
399,404
399,405
399,407
400,686
401,403
401,408
401,409
402,435
402,449
403,410
403,411
403,412
403,413
403,414
404,410
404,411
404,414
405,410
405,411
405,412
405,413
405,414
406,549
407,410
407,411
407,414
408,410
408,412
408,414
409,410
409,411
409,412
410,416
410,417
410,418
410,419
411,415
411,420
412,415
412,416
412,417
413,415
413,416
413,417
413,418
413,420
413,434
414,415
415,421
416,780
416,943
416,967
417,504
418,424
418,426
418,435
419,421
419,422
419,423
419,424
419,425
420,641
420,654
421,429
421,431
421,433
422,427
422,428
423,427
423,428
423,432
424,603
425,430
425,434
425,435
425,453
426,427
426,428
427,436
427,437
427,438
427,439
427,440
427,441
427,442
428,590
428,593
428,597
428,599
429,438
429,440
430,436
430,437
430,465
431,436
431,437
431,465
432,436
432,444
433,529
434,436
434,439
435,614
435,713
436,452
437,444
438,448
438,473
439,443
439,444
439,446
439,447
439,449
439,467
440,443
440,444
440,445
440,446
440,447
440,451
440,467
441,443
441,444
441,445
442,443
442,445
442,450
442,453
443,455
444,454
444,455
445,456
445,460
446,454
446,520
447,454
448,454
448,457
449,454
449,455
449,456
449,457
449,458
449,473
450,454
450,455
450,456
451,930
452,459
453,552
454,466
455,461
455,462
455,464
456,461
456,462
457,461
457,462
457,466
458,461
459,461
459,462
459,463
459,464
459,467
460,465
460,510
461,472
461,474
462,469
462,475
462,476
462,477
463,468
463,529
463,543
463,546
463,548
464,470
464,471
464,483
465,542
466,468
466,548
467,473
467,475
468,517
469,478
469,479
469,480
469,481
470,478
471,485
472,478
473,478
473,479
473,480
473,483
474,478
475,719
475,737
475,768
476,783
477,815
478,482
478,484
478,486
479,482
479,485
479,486
480,482
481,483
481,509
482,487
482,488
482,489
483,487
483,498
484,684
485,488
485,509
486,487
486,488
486,489
487,490
487,491
488,490
488,491
488,511
489,490
489,491
489,492
489,493
489,494
489,495
490,496
490,499
490,500
491,539
492,496
492,497
492,498
493,496
493,497
493,502
494,496
494,497
494,501
494,503
494,504
495,496
495,497
495,498
496,505
496,506
496,548
497,505
497,508
497,509
498,511
498,522
498,543
498,546
498,548
499,507
499,510
500,505
500,506
500,507
500,541
501,505
501,548
502,505
502,510
503,505
503,506
504,505
504,506
504,507
504,520
505,512
506,513
507,715
507,729
508,512
508,546
508,548
509,512
509,513
510,512
510,513
510,514
511,512
512,515
512,516
513,515
513,516
513,517
513,518
514,519
514,520
515,529
515,553
516,524
516,525
517,521
517,526
517,527
517,553
518,521
518,553
519,528
520,522
520,523
520,548
521,530
521,531
521,532
522,530
522,531
522,534
523,702
523,710
525,532
526,536
526,537
526,554
527,860
528,535
529,530
529,531
529,533
530,538
530,539
530,542
530,554
531,539
532,538
532,539
533,540
534,631
534,660
534,662
534,690
535,538
535,541
535,543
536,538
536,539
537,590
537,615
538,544
538,547
539,551
539,576
540,544
540,550
541,544
541,545
541,546
541,548
542,544
543,544
543,545
544,552
544,555
545,631
545,638
545,665
546,550
546,551
547,549
547,550
547,551
548,553
548,554
549,556
549,560
550,556
550,557
551,556
551,558
551,559
552,556
552,558
553,556
553,557
554,556
554,679
555,559
556,565
556,689
557,564
557,581
558,563
558,580
559,561
559,562
560,561
560,566
561,612
562,569
563,567
563,568
563,581
564,567
564,568
564,569
565,765
565,808
565,842
566,567
566,568
566,570
567,571
567,577
568,571
568,572
568,573
568,574
569,571
569,572
569,575
570,573
570,574
570,576
571,582
571,623
572,578
572,579
573,804
573,827
574,579
575,584
575,645
576,580
576,581
577,578
577,583
578,584
578,587
579,588
579,589
580,619
581,598
581,625
582,585
582,586
582,648
582,665
583,585
583,741
584,592
585,838
586,606
586,638
587,590
588,682
589,590
589,591
589,593
590,594
590,595
590,596
590,598
591,731
591,732
592,597
592,599
593,594
594,606
594,607
595,600
595,602
596,603
596,608
596,624
597,600
597,601
597,604
598,600
598,601
598,602
598,603
598,605
598,635
599,600
599,601
600,609
600,610
600,611
600,616
601,609
602,609
602,614
603,609
603,610
603,675
604,609
604,615
604,675
605,610
605,730
605,787
606,611
606,807
607,613
608,612
609,621
611,770
611,800
611,830
612,617
612,618
612,632
613,617
613,618
614,754
614,846
615,617
616,617
616,619
616,620
617,662
618,622
618,625
619,623
620,624
621,626
621,681
622,627
622,628
622,629
622,631
622,635
623,627
624,644
625,630
625,633
625,634
626,627
626,632
627,636
627,637
627,639
627,643
628,636
628,637
628,638
628,639
629,757
630,762
631,636
631,809
632,636
632,688
632,738
632,755
632,822
633,640
634,641
635,637
635,638
635,642
636,840
637,688
637,691
638,644
638,645
638,646
639,748
639,864
640,649
641,644
641,647
642,644
642,645
642,646
643,644
643,648
644,650
644,653
644,685
645,876
646,650
646,652
647,650
647,651
647,652
648,650
649,654
650,658
650,660
650,661
651,655
651,662
651,667
652,655
652,657
652,659
653,656
654,655
654,656
654,657
654,674
655,663
655,670
656,663
656,668
656,707
657,849
658,669
658,720
659,667
659,959
660,663
660,666
661,664
661,669
661,671
661,692
662,665
662,706
662,756
662,763
663,701
664,672
664,702
665,715
666,676
667,674
667,703
667,875
667,916
669,673
669,763
670,671
670,672
670,675
671,677
671,682
672,678
673,677
673,680
675,677
675,681
675,727
676,677
676,679
677,686
677,698
678,684
678,689
679,688
680,733
681,685
681,759
682,683
682,687
683,773
683,819
684,691
684,694
685,894
686,693
687,690
687,691
688,692
688,856
688,874
689,690
689,728
690,696
690,697
691,695
691,698
692,804
693,700
693,708
694,698
694,699
695,701
695,706
696,705
696,707
697,806
697,856
698,703
698,704
698,790
698,828
699,768
699,854
700,702
700,750
700,766
700,828
701,708
701,709
701,710
701,711
703,964
704,913
705,818
706,782
707,710
707,711
707,727
707,731
708,714
708,716
708,744
709,712
709,713
709,715
710,789
711,713
712,740
713,718
713,722
715,717
715,720
715,721
716,719
716,723
716,724
717,725
717,727
718,725
718,730
718,780
719,751
720,778
720,827
720,863
720,889
721,725
721,780
722,726
722,729
723,728
723,731
723,736
725,733
726,732
727,732
727,734
727,736
728,800
728,833
728,834
729,735
731,777
732,739
732,746
733,737
733,740
733,786
734,742
734,744
735,741
735,743
736,737
736,738
736,745
736,752
738,753
739,750
739,751
739,767
740,747
740,752
740,755
741,747
741,748
741,758
742,749
742,754
742,778
743,756
743,793
743,829
744,747
744,801
744,828
744,829
745,859
746,747
746,754
746,853
747,854
748,763
748,840
749,758
749,789
750,837
750,842
751,757
751,758
752,762
752,764
753,760
753,848
754,757
754,874
754,881
755,759
755,761
756,979
757,819
758,769
758,771
759,765
759,799
760,874
761,768
761,770
761,981
762,766
762,767
764,834
765,773
766,788
766,829
767,772
767,773
767,774
768,950
768,996
769,772
770,936
770,975
771,775
771,799
772,779
773,776
773,778
773,781
773,783
774,776
774,782
775,777
775,780
775,791
776,791
776,852
777,786
777,788
778,891
779,787
779,790
779,794
780,784
781,789
782,785
782,824
783,784
785,794
785,835
786,802
787,792
787,795
787,796
787,797
788,792
788,793
789,812
790,871
791,792
791,812
792,897
793,801
794,799
794,880
795,852
795,933
795,987
796,853
797,798
797,800
797,802
797,820
798,859
798,874
800,804
800,806
800,822
801,803
801,808
801,809
802,805
802,807
803,848
804,810
805,930
806,813
806,963
807,814
807,818
808,811
808,812
808,816
808,817
809,815
810,821
810,823
810,831
811,818
811,840
812,818
814,819
815,822
816,818
817,818
817,820
818,830
819,827
819,829
820,848
821,824
821,825
821,889
822,824
822,826
822,831
823,828
823,929
823,963
824,832
824,835
825,928
825,959
826,944
827,878
827,936
827,986
828,901
829,880
829,906
830,831
830,833
830,834
831,838
831,841
833,836
833,837
833,839
834,866
834,939
835,840
835,842
836,845
836,847
837,843
837,844
837,845
839,873
840,846
840,876
841,859
841,886
843,851
844,848
844,850
845,923
845,972
845,973
846,852
846,959
847,849
848,855
848,856
849,854
849,897
850,853
850,854
850,857
850,858
850,859
851,974
852,934
853,863
853,867
854,862
855,863
855,866
855,868
856,935
857,860
858,893
858,906
859,861
859,864
859,865
859,907
860,869
860,870
860,871
861,869
861,870
862,873
862,931
863,871
863,872
864,890
865,875
866,970
867,871
867,876
868,874
869,883
870,909
870,939
871,880
871,881
872,879
872,962
873,883
874,877
875,882
875,897
875,975
876,877
876,878
876,884
877,885
878,923
879,886
879,955
880,925
881,885
882,991
883,887
883,888
883,889
883,906
884,897
885,890
885,891
886,912
886,967
887,899
887,902
888,939
890,892
890,895
890,896
891,893
891,894
892,897
892,898
892,901
892,903
893,907
893,983
894,904
895,900
896,899
896,902
896,904
896,905
896,906
899,910
900,993
901,914
902,909
902,912
904,913
904,950
905,981
906,908
906,911
908,916
909,989
910,918
910,924
911,953
912,929
913,917
913,960
914,915
914,919
914,920
916,923
916,927
917,924
917,925
918,949
919,921
919,922
919,928
919,945
920,921
920,926
922,931
924,929
925,932
926,935
927,933
927,934
928,930
930,936
931,940
932,938
932,939
932,941
932,966
933,937
933,956
934,942
934,943
935,940
936,947
939,946
939,948
940,949
940,972
940,998
941,944
941,945
941,996
942,950
943,977
944,955
945,956
945,957
947,958
948,961
949,953
949,959
950,951
950,952
950,954
952,999
953,966
954,960
955,963
955,964
956,962
957,964
957,965
957,967
957,969
958,993
959,961
959,974
960,969
961,970
961,971
965,968
965,997
968,974
969,972
969,973
969,977
969,980
970,975
970,999
971,976
972,978
973,983
973,984
974,979
975,980
976,981
977,982
977,985
978,986
980,986
980,989
981,987
982,988
983,991
984,990
985,992
985,993
986,994
987,996
988,1000
991,997
992,995
993,998
993,999

<end>
